#LAMMPS Input file generated by Avogadro
# Title

# Intialization
units          real
dimension      3
boundary       p p p
atom_style     full


pair_style      lj/cut 2.5
bond_style      harmonic  
angle_style     harmonic  
dihedral_style  harmonic
improper_style  none

#Atomic Interactions
read_data      data.dma6

#Define some groups
group	anchor id 11 12 13
group	therest subtract all anchor

# Settings
pair_modify	mix arithmetic
atom_modify sort 0 0.0
neighbor        2.0 multi
neigh_modify    every 2 delay 4 check yes
velocity       all create 303.15 4928459 rot yes mom yes dist gaussian

#Anchor a group
fix            ensemble therest nvt temp 303.15 303.15 100 tchain 1
fix		        freeze anchor setforce 0.0 0.0 0.0

#Compute some things
compute 1 all gyration
compute cc1 all chunk/atom molecule
compute myChunk all gyration/chunk cc1
fix 1 all ave/time 100 1 100 c_myChunk file tmp.out mode vector

timestep       1.0

# Output
dump           1 all atom 50 dma6.lammpstrj
#dump           dumpXYZ all xyz 5 dma1.trj.xyz
thermo_style   one
thermo         100

# Run the simulation
run            500000

